decision_x1=[0,2];
decision_x2=[0,2];
decision_x3=[0,2];
decision_x4=[0,2];
decision_x5=[0,2];
decision_x6=[0,2];
decision_x7=[0,2];
decision_x8=[0,2];
decision_x9=[0,2];
decision_x10=[0,2];
decision_x11=[0,2];
decision_x12=[0,2];
random_y1=[0,2];
random_y2=[0,2];
random_y3=[0,2];
constraint_x3_x1=[
0,0,3.1|
0,1,8.7|
0,2,1.1|
1,0,7.5|
1,1,4.2|
1,2,2.3|
2,0,2.6|
2,1,9|
2,2,8.7|
];
constraint_x3_x2=[
0,0,6|
0,1,9.4|
0,2,0.73|
1,0,7|
1,1,9.7|
1,2,6.5|
2,0,5.2|
2,1,7.5|
2,2,0.78|
];
constraint_x4_x1=[
0,0,2.6|
0,1,5.8|
0,2,9|
1,0,7.8|
1,1,4.4|
1,2,4.8|
2,0,3.1|
2,1,9.9|
2,2,5.5|
];
constraint_x4_x2=[
0,0,3.6|
0,1,7.9|
0,2,8.4|
1,0,2.1|
1,1,1.1|
1,2,3.7|
2,0,3.3|
2,1,2.1|
2,2,0.91|
];
constraint_x5_x1=[
0,0,2|
0,1,0.7|
0,2,9.2|
1,0,1.2|
1,1,2.6|
1,2,4.7|
2,0,5.8|
2,1,9.1|
2,2,4.8|
];
constraint_x5_x3=[
0,0,2.1|
0,1,6.6|
0,2,5|
1,0,1.7|
1,1,2.8|
1,2,3.1|
2,0,9.2|
2,1,4.9|
2,2,5|
];
constraint_x6_x3=[
0,0,2.7|
0,1,1.1|
0,2,2.1|
1,0,1.7|
1,1,6.5|
1,2,0.93|
2,0,1.7|
2,1,5.1|
2,2,2.9|
];
constraint_x7_x1=[
0,0,1.9|
0,1,2.7|
0,2,2.3|
1,0,9.1|
1,1,4|
1,2,3.6|
2,0,0.27|
2,1,0.75|
2,2,4.8|
];
constraint_x7_x3=[
0,0,2.4|
0,1,9.6|
0,2,5.5|
1,0,5.3|
1,1,4.3|
1,2,0.83|
2,0,5.9|
2,1,2.2|
2,2,5.8|
];
constraint_x7_x4=[
0,0,1.9|
0,1,2.6|
0,2,7.2|
1,0,9.6|
1,1,8|
1,2,4.7|
2,0,5.2|
2,1,5.4|
2,2,7|
];
constraint_x7_x5=[
0,0,2.4|
0,1,6|
0,2,1.3|
1,0,8.2|
1,1,8.2|
1,2,8.2|
2,0,8.7|
2,1,7.2|
2,2,7.9|
];
constraint_x8_x4=[
0,0,1.2|
0,1,3.4|
0,2,8.3|
1,0,0.29|
1,1,3.1|
1,2,2.3|
2,0,7.7|
2,1,3.4|
2,2,6.8|
];
constraint_x8_x6=[
0,0,6.9|
0,1,6.1|
0,2,1.5|
1,0,3.2|
1,1,0.34|
1,2,8.6|
2,0,9.8|
2,1,7.5|
2,2,1.5|
];
constraint_x9_x2=[
0,0,6.2|
0,1,4.8|
0,2,0.69|
1,0,6.7|
1,1,9.3|
1,2,3.2|
2,0,9.8|
2,1,5.4|
2,2,6.6|
];
constraint_x9_x3=[
0,0,4|
0,1,3.5|
0,2,1.2|
1,0,8.9|
1,1,5.9|
1,2,9.3|
2,0,2.3|
2,1,7.6|
2,2,3.4|
];
constraint_x9_x4=[
0,0,8.1|
0,1,1|
0,2,8.3|
1,0,4.1|
1,1,2.4|
1,2,4.5|
2,0,1.7|
2,1,8.9|
2,2,8.9|
];
constraint_x9_x5=[
0,0,7.2|
0,1,1|
0,2,8.3|
1,0,3.9|
1,1,5.3|
1,2,4.7|
2,0,2.2|
2,1,6.3|
2,2,1.1|
];
constraint_x9_x8=[
0,0,4.5|
0,1,8.6|
0,2,2.3|
1,0,5.6|
1,1,5.5|
1,2,2.2|
2,0,6.4|
2,1,6.5|
2,2,6.4|
];
constraint_x10_x1=[
0,0,6.1|
0,1,9.9|
0,2,2.2|
1,0,7|
1,1,0.42|
1,2,7.4|
2,0,4.2|
2,1,7.2|
2,2,3.1|
];
constraint_x10_x2=[
0,0,0.49|
0,1,8.8|
0,2,5.5|
1,0,9.8|
1,1,5|
1,2,9.3|
2,0,0.65|
2,1,7.1|
2,2,5.8|
];
constraint_x10_x3=[
0,0,6.3|
0,1,4.5|
0,2,8.2|
1,0,4.5|
1,1,4.7|
1,2,6.3|
2,0,5.2|
2,1,2|
2,2,1.8|
];
constraint_x10_x4=[
0,0,2.8|
0,1,7.2|
0,2,8.9|
1,0,9.1|
1,1,8.1|
1,2,0.26|
2,0,8.6|
2,1,1.7|
2,2,6.5|
];
constraint_x10_x5=[
0,0,8.1|
0,1,2.3|
0,2,1.2|
1,0,2.8|
1,1,1.1|
1,2,4.6|
2,0,1.7|
2,1,4.5|
2,2,4.6|
];
constraint_x10_x8=[
0,0,7.2|
0,1,3.1|
0,2,2.1|
1,0,4.3|
1,1,7.5|
1,2,4.3|
2,0,0.65|
2,1,6.2|
2,2,7|
];
constraint_x10_x9=[
0,0,8.2|
0,1,7.5|
0,2,8|
1,0,2.8|
1,1,2.2|
1,2,8.7|
2,0,8.3|
2,1,8.7|
2,2,0.11|
];
constraint_x11_x1=[
0,0,4.8|
0,1,8.2|
0,2,8.9|
1,0,3.6|
1,1,3.5|
1,2,8.7|
2,0,7.9|
2,1,0.72|
2,2,5|
];
constraint_x11_x3=[
0,0,1.3|
0,1,4.7|
0,2,0.41|
1,0,5.6|
1,1,9.2|
1,2,6.6|
2,0,5.8|
2,1,9.2|
2,2,9.8|
];
constraint_x11_x6=[
0,0,2.6|
0,1,7.5|
0,2,10|
1,0,3.6|
1,1,1.8|
1,2,3.2|
2,0,0.019|
2,1,1.6|
2,2,8.2|
];
constraint_x11_x9=[
0,0,1.1|
0,1,2.5|
0,2,3.6|
1,0,2.8|
1,1,9.7|
1,2,8.5|
2,0,2.7|
2,1,9.5|
2,2,3.9|
];
constraint_x11_x10=[
0,0,4.2|
0,1,8.6|
0,2,1.9|
1,0,8.2|
1,1,9.1|
1,2,1.9|
2,0,7|
2,1,5.7|
2,2,2.5|
];
constraint_x12_x2=[
0,0,2.6|
0,1,7|
0,2,0.44|
1,0,0.61|
1,1,7.8|
1,2,0.87|
2,0,4.6|
2,1,4.2|
2,2,3|
];
constraint_x12_x8=[
0,0,8|
0,1,1.1|
0,2,5.9|
1,0,8.8|
1,1,9.9|
1,2,9.2|
2,0,3.6|
2,1,8.9|
2,2,1.5|
];
constraint_x12_x9=[
0,0,0.45|
0,1,8.1|
0,2,9.9|
1,0,5.5|
1,1,0.71|
1,2,9.1|
2,0,7.7|
2,1,7.7|
2,2,3.8|
];
constraint_x1_y1=[
0,0,1.9|
0,1,9.6|
0,2,2.3|
1,0,5.4|
1,1,4|
1,2,7.1|
2,0,0.97|
2,1,4.7|
2,2,0.43|
];
constraint_x2_y2=[
0,0,6|
0,1,1.5|
0,2,3.2|
1,0,4.2|
1,1,2.5|
1,2,8.4|
2,0,2.1|
2,1,4.6|
2,2,3.3|
];
constraint_x3_y3=[
0,0,5.6|
0,1,7.9|
0,2,3|
1,0,0.13|
1,1,7.7|
1,2,8|
2,0,0.38|
2,1,1.9|
2,2,7.3|
];
initial_distribution_y1=[0.34,0.099,0.56];
initial_distribution_y2=[0.58,0.23,0.19];
initial_distribution_y3=[0.61,0.33,0.058];
transition_y1=[
0.11,0.44,0.45|
0.27,0.34,0.39|
0.16,0.51,0.33|
];
transition_y2=[
0.52,0.26,0.22|
0.37,0.24,0.39|
0.18,0.4,0.42|
];
transition_y3=[
0.033,0.59,0.38|
0.68,0.053,0.26|
0.13,0.7,0.18|
];
